Maximize
  13 x0 - 27 x1 - 12 x2 - 17 x3 + 25 x4 - 33 x5 + 16 x6 - 11 x7 + 31 x8
   + 36 x9 + 0 x10 + 0 x11 + 0 x12 - 17 x13 - 11 x14 + 0 x15 + 35 x16
   - 6 x17 - 12 x18 - 20 x19 - 12 x20 + 27 x21 - 29 x22 + 0 x23 + 20 x24
   + 7 x25 + 6 x26 + 16 x27 + 16 x28 - 34 x29 + [ 33 x0 ^2 + 58 x0 * x1
   + 22 x0 * x3 - 58 x0 * x4 - 86 x0 * x5 - 76 x0 * x6 - 68 x0 * x8
   - 72 x0 * x10 + 48 x0 * x11 + 46 x0 * x12 + 96 x0 * x14 + 32 x0 * x18
   - 20 x0 * x19 - 52 x0 * x20 - 64 x0 * x21 + 4 x0 * x22 + 78 x0 * x24
   - 50 x0 * x25 - 28 x0 * x26 + 94 x0 * x27 - 38 x0 * x28 - 98 x0 * x29
   + 23 x1 ^2 - 14 x1 * x2 - 26 x1 * x3 + 22 x1 * x4 + 72 x1 * x5
   + 52 x1 * x6 - 42 x1 * x7 + 82 x1 * x9 + 88 x1 * x10 - 26 x1 * x11
   - 52 x1 * x12 + 26 x1 * x13 - 22 x1 * x16 + 90 x1 * x17 - 40 x1 * x18
   - 98 x1 * x19 - 16 x1 * x20 - 84 x1 * x21 - 44 x1 * x22 + 88 x1 * x23
   - 52 x1 * x24 + 52 x1 * x26 - 76 x1 * x27 - 64 x1 * x29 - 24 x2 ^2
   + 78 x2 * x3 - 78 x2 * x4 - 28 x2 * x5 + 70 x2 * x6 + 80 x2 * x8
   + 62 x2 * x9 + 40 x2 * x11 + 22 x2 * x13 - 80 x2 * x14 - 16 x2 * x15
   - 2 x2 * x16 + 28 x2 * x17 + 14 x2 * x18 + 10 x2 * x19 - 50 x2 * x20
   - 76 x2 * x21 - 50 x2 * x22 + 88 x2 * x23 - 54 x2 * x25 - 90 x2 * x26
   - 68 x2 * x28 - 70 x3 * x4 - 12 x3 * x5 - 76 x3 * x6 - 14 x3 * x7
   - 80 x3 * x8 - 18 x3 * x9 + 64 x3 * x11 - 38 x3 * x12 - 82 x3 * x14
   - 30 x3 * x15 + 34 x3 * x16 + 86 x3 * x17 - 92 x3 * x18 - 50 x3 * x19
   + 44 x3 * x20 - 24 x3 * x21 + 70 x3 * x22 + 70 x3 * x23 + 52 x3 * x24
   + 86 x3 * x25 - 16 x3 * x26 - 62 x3 * x27 + 66 x3 * x29 + 30 x4 * x5
   + 16 x4 * x6 - 4 x4 * x7 + 24 x4 * x9 - 68 x4 * x10 - 4 x4 * x11
   + 26 x4 * x13 + 70 x4 * x14 - 10 x4 * x15 + 6 x4 * x16 + 44 x4 * x17
   - 88 x4 * x18 - 10 x4 * x19 - 16 x4 * x20 - 30 x4 * x21 - 60 x4 * x22
   - 74 x4 * x23 - 62 x4 * x24 - 58 x4 * x25 - 70 x4 * x26 - 98 x4 * x27
   - 52 x4 * x28 + 60 x4 * x29 + 19 x5 ^2 - 98 x5 * x7 + 82 x5 * x8
   + 76 x5 * x9 + 32 x5 * x11 - 12 x5 * x12 - 2 x5 * x13 + 14 x5 * x14
   + 20 x5 * x15 - 58 x5 * x16 + 64 x5 * x17 + 4 x5 * x18 + 30 x5 * x19
   + 40 x5 * x21 - 30 x5 * x22 - 68 x5 * x23 + 22 x5 * x24 - 8 x5 * x25
   - 26 x5 * x27 - 40 x5 * x28 - 86 x5 * x29 + 90 x6 * x7 - 12 x6 * x8
   - 24 x6 * x9 + 24 x6 * x12 + 90 x6 * x15 + 74 x6 * x16 + 28 x6 * x17
   + 30 x6 * x18 + 80 x6 * x19 - 34 x6 * x20 - 94 x6 * x22 + 76 x6 * x23
   + 82 x6 * x24 - 54 x6 * x25 - 34 x6 * x26 - 26 x6 * x27 - 30 x6 * x28
   + 37 x7 ^2 - 40 x7 * x8 - 2 x7 * x13 + 96 x7 * x14 - 28 x7 * x15
   - 90 x7 * x16 + 70 x7 * x17 + 76 x7 * x18 - 84 x7 * x22 + 76 x7 * x26
   + 44 x7 * x27 - 70 x7 * x28 + 6 x7 * x29 - 45 x8 ^2 - 34 x8 * x10
   - 94 x8 * x11 + 22 x8 * x12 - 34 x8 * x13 - 56 x8 * x15 + 32 x8 * x16
   + 84 x8 * x17 - 4 x8 * x18 - 48 x8 * x19 - 86 x8 * x20 + 16 x8 * x21
   - 70 x8 * x22 + 66 x8 * x23 - 2 x8 * x24 + 90 x8 * x25 - 44 x8 * x27
   - 18 x8 * x28 - 96 x8 * x29 - 68 x9 * x10 + 54 x9 * x11 - 22 x9 * x12
   + 68 x9 * x13 - 44 x9 * x15 - 82 x9 * x16 + 82 x9 * x18 + 20 x9 * x20
   + 20 x9 * x22 - 28 x9 * x23 - 66 x9 * x24 + 68 x9 * x25 - 6 x9 * x26
   + 34 x9 * x27 - 42 x9 * x29 - 48 x10 ^2 + 88 x10 * x11 + 48 x10 * x12
   - 20 x10 * x13 - 40 x10 * x14 + 44 x10 * x15 - 56 x10 * x16
   + 46 x10 * x17 - 18 x10 * x18 + 78 x10 * x21 - 74 x10 * x22
   + 6 x10 * x24 - 6 x10 * x26 - 36 x10 * x27 + 58 x10 * x28 + 10 x11 ^2
   - 58 x11 * x13 + 68 x11 * x16 - 62 x11 * x17 - 74 x11 * x18
   - 98 x11 * x19 + 22 x11 * x20 + 24 x11 * x21 + 16 x11 * x22
   + 88 x11 * x23 - 88 x11 * x24 - 54 x11 * x25 + 22 x11 * x28
   - 4 x11 * x29 + 49 x12 ^2 + 18 x12 * x13 + 76 x12 * x15 - 20 x12 * x16
   - 74 x12 * x17 + 50 x12 * x18 + 82 x12 * x19 + 16 x12 * x20
   - 2 x12 * x21 - 80 x12 * x22 + 36 x12 * x23 - 42 x12 * x26
   + 56 x12 * x28 + x13 ^2 - 28 x13 * x14 + 18 x13 * x15 + 88 x13 * x16
   - 34 x13 * x17 - 12 x13 * x18 - 40 x13 * x20 + 76 x13 * x21
   - 76 x13 * x22 - 48 x13 * x23 + 10 x13 * x24 + 44 x13 * x25
   - 94 x13 * x26 + 94 x13 * x27 - 10 x13 * x28 + 34 x13 * x29 + 48 x14 ^2
   + 80 x14 * x16 + 76 x14 * x17 + 12 x14 * x18 + 86 x14 * x19
   - 32 x14 * x20 + 12 x14 * x21 - 26 x14 * x22 + 4 x14 * x23
   - 62 x14 * x24 - 2 x14 * x25 + 32 x14 * x28 - 14 x14 * x29
   + 58 x15 * x16 - 78 x15 * x17 + 98 x15 * x18 + 72 x15 * x19
   - 74 x15 * x20 - 28 x15 * x21 + 4 x15 * x22 - 80 x15 * x24
   + 30 x15 * x25 + 90 x15 * x26 + 98 x15 * x27 + 80 x15 * x28 + 12 x16 ^2
   - 32 x16 * x17 - 16 x16 * x18 - 20 x16 * x19 - 40 x16 * x20
   + 90 x16 * x21 + 98 x16 * x23 + 38 x16 * x25 + 32 x16 * x26
   - 68 x16 * x27 - 12 x16 * x28 + 80 x16 * x29 - 11 x17 ^2 + 60 x17 * x18
   - 94 x17 * x19 - 34 x17 * x21 - 34 x17 * x22 - 86 x17 * x23
   + 54 x17 * x24 + 70 x17 * x25 - 8 x17 * x26 - 76 x17 * x28
   - 10 x17 * x29 - 16 x18 ^2 + 8 x18 * x19 + 90 x18 * x20 + 70 x18 * x21
   - 6 x18 * x22 - 68 x18 * x23 + 42 x18 * x24 - 32 x18 * x25
   + 84 x18 * x26 - 50 x18 * x28 + 14 x18 * x29 - 35 x19 ^2 + 80 x19 * x20
   - 80 x19 * x21 + 74 x19 * x22 - 86 x19 * x23 - 86 x19 * x25
   + 52 x19 * x26 + 68 x19 * x27 - 34 x19 * x28 + 6 x20 ^2 - 34 x20 * x21
   - 54 x20 * x23 - 12 x20 * x25 - 80 x20 * x26 - 90 x20 * x27
   - 84 x20 * x29 - 98 x21 * x22 - 46 x21 * x23 - 84 x21 * x24
   + 56 x21 * x25 - 38 x21 * x26 - 60 x21 * x28 + 32 x22 ^2 + 82 x22 * x24
   - 6 x22 * x25 + 74 x22 * x26 + 14 x22 * x28 - 19 x23 ^2 + 28 x23 * x24
   - 26 x23 * x25 - 84 x23 * x26 + 44 x23 * x27 + 66 x23 * x28
   - 32 x23 * x29 - 19 x24 ^2 - 66 x24 * x25 + 16 x24 * x26 + 12 x24 * x27
   + 30 x24 * x28 - 20 x24 * x29 + 10 x25 ^2 - 18 x25 * x27 + 54 x25 * x28
   - 32 x26 ^2 - 78 x26 * x27 - 66 x26 * x29 - 35 x27 ^2 - 52 x27 * x28
   + 20 x28 ^2 - 6 x28 * x29 + 26 x29 ^2 ] / 2 
Subject To
Bounds
 x0 <= 1
 x1 <= 1
 x2 <= 1
 x3 <= 1
 x4 <= 1
 x5 <= 1
 x6 <= 1
 x7 <= 1
 x8 <= 1
 x9 <= 1
 x10 <= 1
 x11 <= 1
 x12 <= 1
 x13 <= 1
 x14 <= 1
 x15 <= 1
 x16 <= 1
 x17 <= 1
 x18 <= 1
 x19 <= 1
 x20 <= 1
 x21 <= 1
 x22 <= 1
 x23 <= 1
 x24 <= 1
 x25 <= 1
 x26 <= 1
 x27 <= 1
 x28 <= 1
 x29 <= 1
End
